(set-info :smt-lib-version 2.6)
(set-logic QF_LRA)
(set-info :source |
SAL benchmark suite.  Created at SRI by Bruno Dutertre, John Rushby, Maria
Sorea, and Leonardo de Moura.  Contact demoura@csl.sri.com for more
information.

This benchmark was automatically translated into SMT-LIB format from
CVC format using CVC Lite
|)
(set-info :category "industrial")
(set-info :status unsat)
(declare-fun x_0 () Bool)
(declare-fun x_1 () Bool)
(declare-fun x_2 () Bool)
(declare-fun x_3 () Bool)
(declare-fun x_4 () Bool)
(declare-fun x_5 () Bool)
(declare-fun x_6 () Real)
(declare-fun x_7 () Real)
(declare-fun x_8 () Real)
(declare-fun x_9 () Real)
(declare-fun x_10 () Bool)
(declare-fun x_11 () Bool)
(declare-fun x_12 () Bool)
(declare-fun x_13 () Bool)
(declare-fun x_14 () Bool)
(declare-fun x_15 () Bool)
(declare-fun x_16 () Bool)
(declare-fun x_17 () Real)
(declare-fun x_18 () Bool)
(declare-fun x_19 () Bool)
(declare-fun x_20 () Real)
(declare-fun x_21 () Real)
(declare-fun x_22 () Real)
(declare-fun x_23 () Real)
(declare-fun x_24 () Bool)
(declare-fun x_25 () Bool)
(declare-fun x_26 () Real)
(declare-fun x_27 () Real)
(declare-fun x_28 () Bool)
(declare-fun x_29 () Bool)
(declare-fun x_30 () Real)
(declare-fun x_31 () Bool)
(declare-fun x_32 () Bool)
(declare-fun x_33 () Real)
(declare-fun x_34 () Bool)
(declare-fun x_35 () Bool)
(declare-fun x_36 () Bool)
(declare-fun x_37 () Bool)
(declare-fun x_38 () Bool)
(declare-fun x_39 () Bool)
(declare-fun x_40 () Real)
(declare-fun x_41 () Bool)
(declare-fun x_42 () Bool)
(declare-fun x_43 () Real)
(declare-fun x_44 () Real)
(declare-fun x_45 () Real)
(declare-fun x_46 () Bool)
(declare-fun x_47 () Bool)
(declare-fun x_48 () Real)
(declare-fun x_49 () Real)
(declare-fun x_50 () Real)
(declare-fun x_51 () Real)
(declare-fun x_52 () Bool)
(declare-fun x_53 () Bool)
(declare-fun x_54 () Bool)
(declare-fun x_55 () Bool)
(declare-fun x_56 () Bool)
(declare-fun x_57 () Bool)
(declare-fun x_58 () Real)
(declare-fun x_59 () Bool)
(declare-fun x_60 () Bool)
(declare-fun x_61 () Real)
(declare-fun x_62 () Real)
(declare-fun x_63 () Real)
(declare-fun x_64 () Bool)
(declare-fun x_65 () Bool)
(declare-fun x_66 () Real)
(declare-fun x_67 () Real)
(declare-fun x_68 () Real)
(declare-fun x_69 () Real)
(assert (let ((?v_23 (+ x_44 x_8)) (?v_24 (and (= x_52 x_34) (= x_53 x_35))) (?v_14 (not x_54))) (let ((?v_16 (and ?v_14 x_55)) (?v_33 (and (= x_56 x_38) (= x_57 x_39))) (?v_9 (= x_48 1)) (?v_31 (= x_58 x_40)) (?v_12 (and (= x_59 x_41) (= x_60 x_42))) (?v_5 (= x_61 x_43)) (?v_11 (+ x_43 x_8)) (?v_28 (= x_58 0)) (?v_0 (= x_48 0)) (?v_21 (= x_62 x_44)) (?v_17 (= x_62 0)) (?v_26 (= x_63 x_45)) (?v_32 (+ x_40 x_8)) (?v_2 (not x_64))) (let ((?v_4 (and ?v_2 x_65)) (?v_53 (+ x_21 x_7)) (?v_54 (and (= x_34 x_10) (= x_35 x_11))) (?v_46 (not x_36))) (let ((?v_48 (and ?v_46 x_37)) (?v_61 (and (= x_38 x_14) (= x_39 x_15))) (?v_41 (= x_26 1)) (?v_59 (= x_40 x_17)) (?v_44 (and (= x_41 x_18) (= x_42 x_19))) (?v_39 (= x_43 x_20)) (?v_43 (+ x_20 x_7)) (?v_58 (= x_40 0)) (?v_34 (= x_26 0)) (?v_51 (= x_44 x_21)) (?v_49 (= x_44 0)) (?v_56 (= x_45 x_22)) (?v_60 (+ x_17 x_7)) (?v_36 (not x_46))) (let ((?v_38 (and ?v_36 x_47)) (?v_70 (+ 0 x_6)) (?v_79 (and (= x_10 x_2) (= x_11 x_3))) (?v_74 (not x_12))) (let ((?v_76 (and ?v_74 x_13)) (?v_84 (and (= x_14 x_4) (= x_15 x_5))) (?v_83 (= x_17 0)) (?v_71 (and (= x_18 x_0) (= x_19 x_1))) (?v_66 (= x_20 0)) (?v_64 (not x_16)) (?v_75 (= x_21 0)) (?v_82 (= x_22 x_23)) (?v_65 (not x_24))) (let ((?v_67 (and ?v_65 x_25)) (?v_62 (not x_0)) (?v_63 (not x_1)) (?v_72 (not x_2)) (?v_73 (not x_3)) (?v_80 (not x_4)) (?v_81 (not x_5)) (?v_3 (not x_41)) (?v_1 (not x_42)) (?v_6 (not x_65)) (?v_8 (not x_60)) (?v_7 (not x_59)) (?v_15 (not x_34)) (?v_13 (not x_35)) (?v_20 (not x_53)) (?v_18 (not x_55)) (?v_19 (not x_52)) (?v_27 (not x_38)) (?v_25 (not x_39)) (?v_30 (not x_57)) (?v_29 (not x_56))) (let ((?v_85 (or ?v_27 ?v_25)) (?v_37 (not x_18)) (?v_35 (not x_19)) (?v_40 (not x_47)) (?v_47 (not x_10)) (?v_45 (not x_11)) (?v_50 (not x_37)) (?v_57 (not x_14)) (?v_55 (not x_15))) (let ((?v_86 (or ?v_57 ?v_55)) (?v_68 (not x_25)) (?v_77 (not x_13)) (?v_87 (or ?v_80 ?v_81)) (?v_10 (<= ?v_11 5)) (?v_22 (<= ?v_23 1)) (?v_42 (<= ?v_43 5)) (?v_52 (<= ?v_53 1)) (?v_69 (<= ?v_70 5)) (?v_78 (<= ?v_70 1))) (and (and (and (and (and (and (and (and (and (and (and (and (and (and (and (and (and (and (and (and (and (and (and (and (and (and (and (and (and (and (and (and (and (<= x_66 1) (>= x_66 0)) (<= x_48 1)) (>= x_48 0)) (<= x_26 1)) (>= x_26 0)) (and ?v_62 ?v_63)) (and ?v_72 ?v_73)) (and ?v_80 ?v_81)) (not (< x_9 0))) (not (< x_8 0))) (not (< x_7 0))) (not (< x_6 0))) (= x_66 (ite ?v_9 0 1))) (or (or (or (or (or (and (and (and (and (and (and (and (and (= x_67 0) ?v_0) ?v_3) ?v_1) ?v_2) ?v_6) x_59) ?v_8) (= x_61 0)) (and (and (and (and (and (and (and (and (= x_67 1) ?v_0) x_41) ?v_1) (not (<= x_43 2))) ?v_4) ?v_7) x_60) ?v_5)) (and (and (and (and (and (and (and (= x_67 2) ?v_0) ?v_3) x_42) ?v_4) x_59) x_60) ?v_5)) (and (and (and (and (and (and (and (and (= x_67 3) ?v_0) x_41) x_42) x_64) ?v_6) ?v_7) ?v_8) ?v_5)) (and (and (and (and (and (and (and (and (= x_67 4) ?v_9) (or (or ?v_3 x_42) ?v_10)) (or (or x_41 ?v_1) ?v_10)) (or (or ?v_3 ?v_1) ?v_10)) (= x_61 ?v_11)) (= x_64 x_46)) (= x_65 x_47)) ?v_12)) (and (and (and (and (= x_67 5) ?v_0) ?v_5) ?v_4) ?v_12))) (or (or (or (or (or (and (and (and (and (and (and (and (and (and (= x_68 0) ?v_0) ?v_15) ?v_13) ?v_2) ?v_6) ?v_16) x_52) ?v_20) ?v_17) (and (and (and (and (and (and (and (and (and (= x_68 1) ?v_0) x_34) ?v_13) (= x_44 1)) ?v_14) ?v_18) ?v_19) x_53) ?v_21)) (and (and (and (and (and (and (and (and (and (= x_68 2) ?v_0) ?v_15) x_35) x_64) ?v_6) ?v_16) x_52) x_53) ?v_17)) (and (and (and (and (and (and (and (and (= x_68 3) ?v_0) x_34) x_35) x_54) ?v_18) ?v_19) ?v_20) ?v_21)) (and (and (and (and (and (and (and (= x_68 4) ?v_9) (or (or ?v_15 x_35) ?v_22)) (or (or ?v_15 ?v_13) ?v_22)) (= x_62 ?v_23)) (= x_54 x_36)) (= x_55 x_37)) ?v_24)) (and (and (and (and (and (and (= x_68 5) ?v_0) ?v_2) x_65) ?v_21) ?v_16) ?v_24))) (or (or (or (or (or (and (and (and (and (and (and (and (and (and (= x_69 0) ?v_0) ?v_27) ?v_25) ?v_14) ?v_18) x_56) ?v_30) ?v_28) ?v_26) (and (and (and (and (and (and (and (= x_69 1) ?v_0) x_38) ?v_25) ?v_29) x_57) ?v_26) ?v_31)) (and (and (and (and (and (and (and (and (and (= x_69 2) ?v_0) ?v_27) x_39) x_54) ?v_18) x_56) x_57) ?v_28) ?v_26)) (and (and (and (and (and (and (and (and (= x_69 3) ?v_0) x_38) x_39) (not (< x_40 1))) ?v_29) ?v_30) ?v_26) ?v_31)) (and (and (and (and (and (and (= x_69 4) ?v_9) (or (or ?v_27 x_39) (<= ?v_32 1))) (or ?v_85 (<= ?v_32 2))) (= x_58 ?v_32)) ?v_33) ?v_26)) (and (and (and (and (and (and (= x_69 5) ?v_0) ?v_14) x_55) ?v_31) ?v_33) ?v_26))) (= x_48 (ite ?v_41 0 1))) (or (or (or (or (or (and (and (and (and (and (and (and (and (= x_49 0) ?v_34) ?v_37) ?v_35) ?v_36) ?v_40) x_41) ?v_1) (= x_43 0)) (and (and (and (and (and (and (and (and (= x_49 1) ?v_34) x_18) ?v_35) (not (<= x_20 2))) ?v_38) ?v_3) x_42) ?v_39)) (and (and (and (and (and (and (and (= x_49 2) ?v_34) ?v_37) x_19) ?v_38) x_41) x_42) ?v_39)) (and (and (and (and (and (and (and (and (= x_49 3) ?v_34) x_18) x_19) x_46) ?v_40) ?v_3) ?v_1) ?v_39)) (and (and (and (and (and (and (and (and (= x_49 4) ?v_41) (or (or ?v_37 x_19) ?v_42)) (or (or x_18 ?v_35) ?v_42)) (or (or ?v_37 ?v_35) ?v_42)) (= x_43 ?v_43)) (= x_46 x_24)) (= x_47 x_25)) ?v_44)) (and (and (and (and (= x_49 5) ?v_34) ?v_39) ?v_38) ?v_44))) (or (or (or (or (or (and (and (and (and (and (and (and (and (and (= x_50 0) ?v_34) ?v_47) ?v_45) ?v_36) ?v_40) ?v_48) x_34) ?v_13) ?v_49) (and (and (and (and (and (and (and (and (and (= x_50 1) ?v_34) x_10) ?v_45) (= x_21 1)) ?v_46) ?v_50) ?v_15) x_35) ?v_51)) (and (and (and (and (and (and (and (and (and (= x_50 2) ?v_34) ?v_47) x_11) x_46) ?v_40) ?v_48) x_34) x_35) ?v_49)) (and (and (and (and (and (and (and (and (= x_50 3) ?v_34) x_10) x_11) x_36) ?v_50) ?v_15) ?v_13) ?v_51)) (and (and (and (and (and (and (and (= x_50 4) ?v_41) (or (or ?v_47 x_11) ?v_52)) (or (or ?v_47 ?v_45) ?v_52)) (= x_44 ?v_53)) (= x_36 x_12)) (= x_37 x_13)) ?v_54)) (and (and (and (and (and (and (= x_50 5) ?v_34) ?v_36) x_47) ?v_51) ?v_48) ?v_54))) (or (or (or (or (or (and (and (and (and (and (and (and (and (and (= x_51 0) ?v_34) ?v_57) ?v_55) ?v_46) ?v_50) x_38) ?v_25) ?v_58) ?v_56) (and (and (and (and (and (and (and (= x_51 1) ?v_34) x_14) ?v_55) ?v_27) x_39) ?v_56) ?v_59)) (and (and (and (and (and (and (and (and (and (= x_51 2) ?v_34) ?v_57) x_15) x_36) ?v_50) x_38) x_39) ?v_58) ?v_56)) (and (and (and (and (and (and (and (and (= x_51 3) ?v_34) x_14) x_15) (not (< x_17 1))) ?v_27) ?v_25) ?v_56) ?v_59)) (and (and (and (and (and (and (= x_51 4) ?v_41) (or (or ?v_57 x_15) (<= ?v_60 1))) (or ?v_86 (<= ?v_60 2))) (= x_40 ?v_60)) ?v_61) ?v_56)) (and (and (and (and (and (and (= x_51 5) ?v_34) ?v_46) x_37) ?v_59) ?v_61) ?v_56))) (= x_26 (ite x_16 0 1))) (or (or (or (or (or (and (and (and (and (and (and (and (and (= x_27 0) ?v_64) ?v_62) ?v_63) ?v_65) ?v_68) x_18) ?v_35) ?v_66) (and (and (and (and (and (and (and (and (= x_27 1) ?v_64) x_0) ?v_63) (not (<= 0 2))) ?v_67) ?v_37) x_19) ?v_66)) (and (and (and (and (and (and (and (= x_27 2) ?v_64) ?v_62) x_1) ?v_67) x_18) x_19) ?v_66)) (and (and (and (and (and (and (and (and (= x_27 3) ?v_64) x_0) x_1) x_24) ?v_68) ?v_37) ?v_35) ?v_66)) (and (and (and (and (and (and (and (and (= x_27 4) x_16) (or (or ?v_62 x_1) ?v_69)) (or (or x_0 ?v_63) ?v_69)) (or (or ?v_62 ?v_63) ?v_69)) (= x_20 ?v_70)) (= x_24 x_28)) (= x_25 x_29)) ?v_71)) (and (and (and (and (= x_27 5) ?v_64) ?v_66) ?v_67) ?v_71))) (or (or (or (or (or (and (and (and (and (and (and (and (and (and (= x_30 0) ?v_64) ?v_72) ?v_73) ?v_65) ?v_68) ?v_76) x_10) ?v_45) ?v_75) (and (and (and (and (and (and (and (and (and (= x_30 1) ?v_64) x_2) ?v_73) (= 0 1)) ?v_74) ?v_77) ?v_47) x_11) ?v_75)) (and (and (and (and (and (and (and (and (and (= x_30 2) ?v_64) ?v_72) x_3) x_24) ?v_68) ?v_76) x_10) x_11) ?v_75)) (and (and (and (and (and (and (and (and (= x_30 3) ?v_64) x_2) x_3) x_12) ?v_77) ?v_47) ?v_45) ?v_75)) (and (and (and (and (and (and (and (= x_30 4) x_16) (or (or ?v_72 x_3) ?v_78)) (or (or ?v_72 ?v_73) ?v_78)) (= x_21 ?v_70)) (= x_12 x_31)) (= x_13 x_32)) ?v_79)) (and (and (and (and (and (and (= x_30 5) ?v_64) ?v_65) x_25) ?v_75) ?v_76) ?v_79))) (or (or (or (or (or (and (and (and (and (and (and (and (and (and (= x_33 0) ?v_64) ?v_80) ?v_81) ?v_74) ?v_77) x_14) ?v_55) ?v_83) ?v_82) (and (and (and (and (and (and (and (= x_33 1) ?v_64) x_4) ?v_81) ?v_57) x_15) ?v_82) ?v_83)) (and (and (and (and (and (and (and (and (and (= x_33 2) ?v_64) ?v_80) x_5) x_12) ?v_77) x_14) x_15) ?v_83) ?v_82)) (and (and (and (and (and (and (and (and (= x_33 3) ?v_64) x_4) x_5) (not (< 0 1))) ?v_57) ?v_55) ?v_82) ?v_83)) (and (and (and (and (and (and (= x_33 4) x_16) (or (or ?v_80 x_5) ?v_78)) (or ?v_87 (<= ?v_70 2))) (= x_17 ?v_70)) ?v_84) ?v_82)) (and (and (and (and (and (and (= x_33 5) ?v_64) ?v_74) x_13) ?v_83) ?v_84) ?v_82))) (or (or (or (and (and ?v_7 x_60) (or ?v_29 ?v_30)) (and (and ?v_3 x_42) ?v_85)) (and (and ?v_37 x_19) ?v_86)) (and (and ?v_62 x_1) ?v_87))) (or ?v_77 ?v_74)) (or ?v_68 ?v_65)) (or (not x_29) (not x_28))) (or (not x_32) (not x_31))) (or ?v_50 ?v_46)) (or ?v_40 ?v_36)) (or ?v_18 ?v_14)) (or ?v_6 ?v_2))))))))))))
(check-sat)
(exit)
